certificates/rado_a15_c19_N68.cnf
c Rad2 upper bound instance: x1 + 15*x2 - x3 = 19, interval [1,68]
p cnf 68 404
1 2 12 0
-1 -2 -12 0
1 3 27 0
-1 -3 -27 0
1 4 42 0
-1 -4 -42 0
1 5 57 0
-1 -5 -57 0
2 13 0
-2 -13 0
2 3 28 0
-2 -3 -28 0
2 4 43 0
-2 -4 -43 0
2 5 58 0
-2 -5 -58 0
2 3 14 0
-2 -3 -14 0
3 29 0
-3 -29 0
3 4 44 0
-3 -4 -44 0
3 5 59 0
-3 -5 -59 0
2 4 15 0
-2 -4 -15 0
3 4 30 0
-3 -4 -30 0
4 45 0
-4 -45 0
4 5 60 0
-4 -5 -60 0
1 5 0
-1 -5 0
2 5 16 0
-2 -5 -16 0
3 5 31 0
-3 -5 -31 0
4 5 46 0
-4 -5 -46 0
5 61 0
-5 -61 0
1 2 6 0
-1 -2 -6 0
2 6 17 0
-2 -6 -17 0
3 6 32 0
-3 -6 -32 0
4 6 47 0
-4 -6 -47 0
5 6 62 0
-5 -6 -62 0
1 3 7 0
-1 -3 -7 0
2 7 18 0
-2 -7 -18 0
3 7 33 0
-3 -7 -33 0
4 7 48 0
-4 -7 -48 0
5 7 63 0
-5 -7 -63 0
1 4 8 0
-1 -4 -8 0
2 8 19 0
-2 -8 -19 0
3 8 34 0
-3 -8 -34 0
4 8 49 0
-4 -8 -49 0
5 8 64 0
-5 -8 -64 0
1 5 9 0
-1 -5 -9 0
2 9 20 0
-2 -9 -20 0
3 9 35 0
-3 -9 -35 0
4 9 50 0
-4 -9 -50 0
5 9 65 0
-5 -9 -65 0
1 6 10 0
-1 -6 -10 0
2 10 21 0
-2 -10 -21 0
3 10 36 0
-3 -10 -36 0
4 10 51 0
-4 -10 -51 0
5 10 66 0
-5 -10 -66 0
1 7 11 0
-1 -7 -11 0
2 11 22 0
-2 -11 -22 0
3 11 37 0
-3 -11 -37 0
4 11 52 0
-4 -11 -52 0
5 11 67 0
-5 -11 -67 0
1 8 12 0
-1 -8 -12 0
2 12 23 0
-2 -12 -23 0
3 12 38 0
-3 -12 -38 0
4 12 53 0
-4 -12 -53 0
5 12 68 0
-5 -12 -68 0
1 9 13 0
-1 -9 -13 0
2 13 24 0
-2 -13 -24 0
3 13 39 0
-3 -13 -39 0
4 13 54 0
-4 -13 -54 0
1 10 14 0
-1 -10 -14 0
2 14 25 0
-2 -14 -25 0
3 14 40 0
-3 -14 -40 0
4 14 55 0
-4 -14 -55 0
1 11 15 0
-1 -11 -15 0
2 15 26 0
-2 -15 -26 0
3 15 41 0
-3 -15 -41 0
4 15 56 0
-4 -15 -56 0
1 12 16 0
-1 -12 -16 0
2 16 27 0
-2 -16 -27 0
3 16 42 0
-3 -16 -42 0
4 16 57 0
-4 -16 -57 0
1 13 17 0
-1 -13 -17 0
2 17 28 0
-2 -17 -28 0
3 17 43 0
-3 -17 -43 0
4 17 58 0
-4 -17 -58 0
1 14 18 0
-1 -14 -18 0
2 18 29 0
-2 -18 -29 0
3 18 44 0
-3 -18 -44 0
4 18 59 0
-4 -18 -59 0
1 15 19 0
-1 -15 -19 0
2 19 30 0
-2 -19 -30 0
3 19 45 0
-3 -19 -45 0
4 19 60 0
-4 -19 -60 0
1 16 20 0
-1 -16 -20 0
2 20 31 0
-2 -20 -31 0
3 20 46 0
-3 -20 -46 0
4 20 61 0
-4 -20 -61 0
1 17 21 0
-1 -17 -21 0
2 21 32 0
-2 -21 -32 0
3 21 47 0
-3 -21 -47 0
4 21 62 0
-4 -21 -62 0
1 18 22 0
-1 -18 -22 0
2 22 33 0
-2 -22 -33 0
3 22 48 0
-3 -22 -48 0
4 22 63 0
-4 -22 -63 0
1 19 23 0
-1 -19 -23 0
2 23 34 0
-2 -23 -34 0
3 23 49 0
-3 -23 -49 0
4 23 64 0
-4 -23 -64 0
1 20 24 0
-1 -20 -24 0
2 24 35 0
-2 -24 -35 0
3 24 50 0
-3 -24 -50 0
4 24 65 0
-4 -24 -65 0
1 21 25 0
-1 -21 -25 0
2 25 36 0
-2 -25 -36 0
3 25 51 0
-3 -25 -51 0
4 25 66 0
-4 -25 -66 0
1 22 26 0
-1 -22 -26 0
2 26 37 0
-2 -26 -37 0
3 26 52 0
-3 -26 -52 0
4 26 67 0
-4 -26 -67 0
1 23 27 0
-1 -23 -27 0
2 27 38 0
-2 -27 -38 0
3 27 53 0
-3 -27 -53 0
4 27 68 0
-4 -27 -68 0
1 24 28 0
-1 -24 -28 0
2 28 39 0
-2 -28 -39 0
3 28 54 0
-3 -28 -54 0
1 25 29 0
-1 -25 -29 0
2 29 40 0
-2 -29 -40 0
3 29 55 0
-3 -29 -55 0
1 26 30 0
-1 -26 -30 0
2 30 41 0
-2 -30 -41 0
3 30 56 0
-3 -30 -56 0
1 27 31 0
-1 -27 -31 0
2 31 42 0
-2 -31 -42 0
3 31 57 0
-3 -31 -57 0
1 28 32 0
-1 -28 -32 0
2 32 43 0
-2 -32 -43 0
3 32 58 0
-3 -32 -58 0
1 29 33 0
-1 -29 -33 0
2 33 44 0
-2 -33 -44 0
3 33 59 0
-3 -33 -59 0
1 30 34 0
-1 -30 -34 0
2 34 45 0
-2 -34 -45 0
3 34 60 0
-3 -34 -60 0
1 31 35 0
-1 -31 -35 0
2 35 46 0
-2 -35 -46 0
3 35 61 0
-3 -35 -61 0
1 32 36 0
-1 -32 -36 0
2 36 47 0
-2 -36 -47 0
3 36 62 0
-3 -36 -62 0
1 33 37 0
-1 -33 -37 0
2 37 48 0
-2 -37 -48 0
3 37 63 0
-3 -37 -63 0
1 34 38 0
-1 -34 -38 0
2 38 49 0
-2 -38 -49 0
3 38 64 0
-3 -38 -64 0
1 35 39 0
-1 -35 -39 0
2 39 50 0
-2 -39 -50 0
3 39 65 0
-3 -39 -65 0
1 36 40 0
-1 -36 -40 0
2 40 51 0
-2 -40 -51 0
3 40 66 0
-3 -40 -66 0
1 37 41 0
-1 -37 -41 0
2 41 52 0
-2 -41 -52 0
3 41 67 0
-3 -41 -67 0
1 38 42 0
-1 -38 -42 0
2 42 53 0
-2 -42 -53 0
3 42 68 0
-3 -42 -68 0
1 39 43 0
-1 -39 -43 0
2 43 54 0
-2 -43 -54 0
1 40 44 0
-1 -40 -44 0
2 44 55 0
-2 -44 -55 0
1 41 45 0
-1 -41 -45 0
2 45 56 0
-2 -45 -56 0
1 42 46 0
-1 -42 -46 0
2 46 57 0
-2 -46 -57 0
1 43 47 0
-1 -43 -47 0
2 47 58 0
-2 -47 -58 0
1 44 48 0
-1 -44 -48 0
2 48 59 0
-2 -48 -59 0
1 45 49 0
-1 -45 -49 0
2 49 60 0
-2 -49 -60 0
1 46 50 0
-1 -46 -50 0
2 50 61 0
-2 -50 -61 0
1 47 51 0
-1 -47 -51 0
2 51 62 0
-2 -51 -62 0
1 48 52 0
-1 -48 -52 0
2 52 63 0
-2 -52 -63 0
1 49 53 0
-1 -49 -53 0
2 53 64 0
-2 -53 -64 0
1 50 54 0
-1 -50 -54 0
2 54 65 0
-2 -54 -65 0
1 51 55 0
-1 -51 -55 0
2 55 66 0
-2 -55 -66 0
1 52 56 0
-1 -52 -56 0
2 56 67 0
-2 -56 -67 0
1 53 57 0
-1 -53 -57 0
2 57 68 0
-2 -57 -68 0
1 54 58 0
-1 -54 -58 0
1 55 59 0
-1 -55 -59 0
1 56 60 0
-1 -56 -60 0
1 57 61 0
-1 -57 -61 0
1 58 62 0
-1 -58 -62 0
1 59 63 0
-1 -59 -63 0
1 60 64 0
-1 -60 -64 0
1 61 65 0
-1 -61 -65 0
1 62 66 0
-1 -62 -66 0
1 63 67 0
-1 -63 -67 0
1 64 68 0
-1 -64 -68 0
