certificates/rado_a15_c19_N68.drat
-64 -68 0
d -64 -1 -68 0
8 12 64 0
-5 12 0
5 -65 0
-5 -68 0
d -12 -5 -68 0
-68 0
12 0
-5 0
1 0
61 0
-65 0
-16 0
-2 0
-8 0
-57 0
9 0
27 0
4 0
0
